p cnf 710 2324
a 2 3 4 5 6 7 8 12 17 19 21 22 23 26 28 30 31 33 35 37 38 40 42 44 46 48 50 52 55 56 63 65 69 73 75 77 81 88 93 98 101 102 109 110 114 118 119 122 126 130 132 134 136 138 139 143 147 149 153 157 162 164 168 170 171 0
e 1 9 10 11 13 14 15 16 18 20 24 25 27 29 32 34 36 39 41 43 45 47 49 51 53 54 57 58 59 60 61 62 64 66 67 68 70 71 72 74 76 78 79 80 82 83 84 85 86 87 89 90 91 92 94 95 96 97 99 100 103 104 105 106 107 108 111 112 113 115 116 117 120 121 123 124 125 127 128 129 131 133 135 137 140 141 142 144 145 146 148 150 151 152 154 155 156 158 159 160 161 163 165 166 167 169 172 173 174 175 176 177 178 179 180 181 182 183 184 185 186 187 188 189 190 191 192 193 194 195 196 197 198 199 200 201 202 203 204 205 206 207 208 209 210 211 212 213 214 215 216 217 218 219 220 221 222 223 224 225 226 227 228 229 230 231 232 233 234 235 236 237 238 239 240 241 242 243 244 245 246 247 248 249 250 251 252 253 254 255 256 257 258 259 260 261 262 263 264 265 266 267 268 269 270 271 272 273 274 275 276 277 278 279 280 281 282 283 284 285 286 287 288 289 290 291 292 293 294 295 296 297 298 299 300 301 302 303 304 305 306 307 308 309 310 311 312 313 314 315 316 317 318 319 320 321 322 323 324 325 326 327 328 329 330 331 332 333 334 335 336 337 338 339 340 341 342 343 344 345 346 347 348 349 350 351 352 353 354 355 356 357 358 359 360 361 362 363 364 365 366 367 368 369 370 371 372 373 374 375 376 377 378 379 380 381 382 383 384 385 386 387 388 389 390 391 392 393 394 395 396 397 398 399 400 401 402 403 404 405 406 407 408 409 410 411 412 413 414 415 416 417 418 419 420 421 422 423 424 425 426 427 428 429 430 431 432 433 434 435 436 437 438 439 440 441 442 443 444 445 446 447 448 449 450 451 452 453 454 455 456 457 458 459 460 461 462 463 464 465 466 467 468 469 470 471 472 473 474 475 476 477 478 479 480 481 482 483 484 485 486 487 488 489 490 491 492 493 494 495 496 497 498 499 500 501 502 503 504 505 506 507 508 509 510 511 512 513 514 515 516 517 518 519 520 521 522 523 524 525 526 527 528 529 530 531 532 533 534 535 536 537 538 539 540 541 542 543 544 545 546 547 548 549 550 551 552 553 554 555 556 557 558 559 560 561 562 563 564 565 566 567 568 569 570 571 572 573 574 575 576 577 578 579 580 581 582 583 584 585 586 587 588 589 590 591 592 593 594 595 596 597 598 599 600 601 602 603 604 605 606 607 608 609 610 611 612 613 614 615 616 617 618 619 620 621 622 623 624 625 626 627 628 629 630 631 632 633 634 635 636 637 638 639 640 641 642 643 644 645 646 647 648 649 650 651 652 653 654 655 656 657 658 659 660 661 662 663 664 665 666 667 668 669 670 671 672 673 674 675 676 677 678 679 680 681 682 683 684 685 686 687 688 689 690 691 692 693 694 695 696 697 698 699 700 701 702 703 704 705 706 707 708 709 710 0
1 0
7 -9 0
8 -9 0
-7 -8 9 0
7 -10 0
-8 -10 0
-7 8 10 0
7 11 0
-9 11 0
-10 11 0
-7 9 10 -11 0
-12 13 0
12 13 0
6 -14 0
11 -14 0
13 -14 0
-6 -11 -13 14 0
-6 -15 0
11 -15 0
6 -11 15 0
-14 16 0
-15 16 0
14 15 -16 0
-17 18 0
17 18 0
-19 20 0
19 20 0
22 -24 0
-23 -24 0
-22 23 24 0
22 25 0
-24 25 0
-22 24 -25 0
-26 27 0
26 27 0
27 -29 0
28 -29 0
-27 -28 29 0
-31 32 0
31 32 0
32 -34 0
-33 -34 0
-32 33 34 0
32 -36 0
33 -36 0
35 -36 0
-32 -33 -35 36 0
32 -39 0
33 -39 0
-35 -39 0
37 -39 0
38 -39 0
-32 -33 35 -37 -38 39 0
32 -41 0
33 -41 0
-35 -41 0
37 -41 0
-38 -41 0
-40 -41 0
-32 -33 35 -37 38 40 41 0
32 -43 0
33 -43 0
-35 -43 0
-37 -43 0
-42 -43 0
-32 -33 35 37 42 43 0
32 -45 0
33 -45 0
-35 -45 0
-37 -45 0
42 -45 0
44 -45 0
-32 -33 35 37 -42 -44 45 0
32 -47 0
33 -47 0
-35 -47 0
37 -47 0
-38 -47 0
40 -47 0
46 -47 0
-32 -33 35 -37 38 -40 -46 47 0
32 -49 0
33 -49 0
-35 -49 0
37 -49 0
-38 -49 0
40 -49 0
-46 -49 0
48 -49 0
-32 -33 35 -37 38 -40 46 -48 49 0
-50 51 0
50 51 0
32 -53 0
33 -53 0
-35 -53 0
-37 -53 0
42 -53 0
-44 -53 0
51 -53 0
52 -53 0
-32 -33 35 37 -42 44 -51 -52 53 0
32 -54 0
33 -54 0
-35 -54 0
-37 -54 0
42 -54 0
-44 -54 0
51 -54 0
-52 -54 0
-32 -33 35 37 -42 44 -51 52 54 0
55 -57 0
56 -57 0
-55 -56 57 0
55 -58 0
-56 -58 0
-55 56 58 0
55 59 0
-57 59 0
-58 59 0
-55 57 58 -59 0
32 -60 0
33 -60 0
-35 -60 0
37 -60 0
-38 -60 0
40 -60 0
-46 -60 0
-48 -60 0
59 -60 0
-32 -33 35 -37 38 -40 46 48 -59 60 0
-34 61 0
-36 61 0
-39 61 0
-41 61 0
-43 61 0
-45 61 0
-47 61 0
-49 61 0
-53 61 0
-54 61 0
-60 61 0
34 36 39 41 43 45 47 49 53 54 60 -61 0
27 -62 0
-28 -62 0
-30 -62 0
61 -62 0
-27 28 30 -61 62 0
27 -64 0
-28 -64 0
30 -64 0
-63 -64 0
-27 28 -30 63 64 0
27 -66 0
-28 -66 0
30 -66 0
63 -66 0
-65 -66 0
-27 28 -30 -63 65 66 0
27 -67 0
-28 -67 0
30 -67 0
63 -67 0
65 -67 0
-27 28 -30 -63 -65 67 0
-62 68 0
-64 68 0
-66 68 0
-67 68 0
62 64 66 67 -68 0
68 -70 0
69 -70 0
-68 -69 70 0
68 -71 0
-69 -71 0
-68 69 71 0
-29 72 0
-70 72 0
-71 72 0
29 70 71 -72 0
-73 74 0
73 74 0
21 -76 0
25 -76 0
72 -76 0
74 -76 0
75 -76 0
-21 -25 -72 -74 -75 76 0
-77 78 0
77 78 0
21 -79 0
25 -79 0
72 -79 0
74 -79 0
-75 -79 0
78 -79 0
-21 -25 -72 -74 75 -78 79 0
-76 80 0
-79 80 0
76 79 -80 0
80 -82 0
81 -82 0
-80 -81 82 0
80 -83 0
-81 -83 0
-80 81 83 0
21 84 0
-82 84 0
-83 84 0
-21 82 83 -84 0
5 -85 0
16 -85 0
18 -85 0
20 -85 0
84 -85 0
-5 -16 -18 -20 -84 85 0
-5 -86 0
16 -86 0
18 -86 0
20 -86 0
5 -16 -18 -20 86 0
-85 87 0
-86 87 0
85 86 -87 0
88 89 0
-88 89 0
4 -90 0
87 -90 0
89 -90 0
-4 -87 -89 90 0
-4 -91 0
87 -91 0
4 -87 91 0
-90 92 0
-91 92 0
90 91 -92 0
93 94 0
-93 94 0
3 -95 0
92 -95 0
94 -95 0
-3 -92 -94 95 0
-3 -96 0
92 -96 0
3 -92 96 0
-95 97 0
-96 97 0
95 96 -97 0
98 99 0
-98 99 0
2 -100 0
97 -100 0
99 -100 0
-2 -97 -99 100 0
102 103 0
-102 103 0
101 -104 0
97 -104 0
103 -104 0
-101 -97 -103 104 0
-101 -105 0
97 -105 0
101 -97 105 0
-104 106 0
-105 106 0
104 105 -106 0
-2 -107 0
106 -107 0
2 -106 107 0
-100 108 0
-107 108 0
100 107 -108 0
109 -111 0
110 -111 0
-109 -110 111 0
109 -112 0
-110 -112 0
-109 110 112 0
-111 113 0
-112 113 0
111 112 -113 0
113 -115 0
114 -115 0
-113 -114 115 0
113 -116 0
-114 -116 0
-113 114 116 0
-115 117 0
-116 117 0
115 116 -117 0
117 -120 0
-118 -120 0
119 -120 0
-117 118 -119 120 0
117 -121 0
-118 -121 0
-119 -121 0
-117 118 119 121 0
117 -123 0
118 -123 0
122 -123 0
-117 -118 -122 123 0
117 -124 0
118 -124 0
-122 -124 0
-117 -118 122 124 0
-120 125 0
-121 125 0
-123 125 0
-124 125 0
120 121 123 124 -125 0
125 -127 0
126 -127 0
-125 -126 127 0
125 -128 0
-126 -128 0
-125 126 128 0
-127 129 0
-128 129 0
127 128 -129 0
129 -131 0
130 -131 0
-129 -130 131 0
129 -133 0
-130 -133 0
132 -133 0
-129 130 -132 133 0
129 -135 0
-130 -135 0
-132 -135 0
134 -135 0
-129 130 132 -134 135 0
129 -137 0
-130 -137 0
-132 -137 0
-134 -137 0
136 -137 0
-129 130 132 134 -136 137 0
129 -140 0
-130 -140 0
-132 -140 0
-134 -140 0
-136 -140 0
138 -140 0
139 -140 0
-129 130 132 134 136 -138 -139 140 0
129 -141 0
-130 -141 0
-132 -141 0
-134 -141 0
-136 -141 0
138 -141 0
-139 -141 0
-129 130 132 134 136 -138 139 141 0
-140 142 0
-141 142 0
140 141 -142 0
142 -144 0
143 -144 0
-142 -143 144 0
142 -145 0
-143 -145 0
-142 143 145 0
-144 146 0
-145 146 0
144 145 -146 0
146 -148 0
147 -148 0
-146 -147 148 0
129 -150 0
-130 -150 0
-132 -150 0
-134 -150 0
-136 -150 0
-138 -150 0
149 -150 0
-129 130 132 134 136 138 -149 150 0
129 -151 0
-130 -151 0
-132 -151 0
-134 -151 0
-136 -151 0
-138 -151 0
-149 -151 0
-129 130 132 134 136 138 149 151 0
-150 152 0
-151 152 0
150 151 -152 0
152 -154 0
153 -154 0
-152 -153 154 0
152 -155 0
-153 -155 0
-152 153 155 0
-154 156 0
-155 156 0
154 155 -156 0
156 -158 0
157 -158 0
-156 -157 158 0
146 -159 0
-147 -159 0
-146 147 159 0
156 -160 0
-157 -160 0
-156 157 160 0
-148 161 0
-158 161 0
-159 161 0
-160 161 0
148 158 159 160 -161 0
161 -163 0
-162 -163 0
-161 162 163 0
161 -165 0
162 -165 0
164 -165 0
-161 -162 -164 165 0
161 -166 0
162 -166 0
-164 -166 0
-161 -162 164 166 0
109 167 0
-131 167 0
-133 167 0
-135 167 0
-137 167 0
-163 167 0
-165 167 0
-166 167 0
-109 131 133 135 137 163 165 166 -167 0
-168 169 0
168 169 0
-171 172 0
171 172 0
170 -173 0
172 -173 0
-170 -172 173 0
170 174 0
-173 174 0
-170 173 -174 0
108 -175 0
167 -175 0
169 -175 0
174 -175 0
-108 -167 -169 -174 175 0
-12 176 0
12 176 0
6 -177 0
176 -177 0
-6 -176 177 0
-177 178 0
6 178 0
177 -6 -178 0
178 -179 0
-21 -179 0
-178 21 179 0
178 -180 0
27 -180 0
28 -180 0
-178 -27 -28 180 0
178 -181 0
27 -181 0
-28 -181 0
30 -181 0
63 -181 0
-65 -181 0
-178 -27 28 -30 -63 65 181 0
178 -182 0
27 -182 0
-28 -182 0
30 -182 0
63 -182 0
65 -182 0
-178 -27 28 -30 -63 -65 182 0
178 -183 0
27 -183 0
-28 -183 0
30 -183 0
-63 -183 0
-178 -27 28 -30 63 183 0
178 -184 0
31 -184 0
-178 -31 184 0
178 -185 0
-31 -185 0
-178 31 185 0
-184 186 0
-185 186 0
184 185 -186 0
-34 187 0
-36 187 0
-39 187 0
-41 187 0
-43 187 0
-45 187 0
-47 187 0
-49 187 0
34 36 39 41 43 45 47 49 -187 0
186 -188 0
187 -188 0
-186 -187 188 0
186 -189 0
32 -189 0
33 -189 0
-35 -189 0
37 -189 0
-38 -189 0
40 -189 0
-46 -189 0
-48 -189 0
59 -189 0
-186 -32 -33 35 -37 38 -40 46 48 -59 189 0
-53 190 0
-54 190 0
53 54 -190 0
186 -191 0
190 -191 0
-186 -190 191 0
-188 192 0
-189 192 0
-191 192 0
188 189 191 -192 0
192 -193 0
27 -193 0
-28 -193 0
-30 -193 0
61 -193 0
-192 -27 28 30 -61 193 0
-181 194 0
-182 194 0
-183 194 0
-193 194 0
181 182 183 193 -194 0
194 -195 0
68 -195 0
69 -195 0
-194 -68 -69 195 0
194 -196 0
68 -196 0
-69 -196 0
-194 -68 69 196 0
-180 197 0
-195 197 0
-196 197 0
180 195 196 -197 0
197 -198 0
21 -198 0
25 -198 0
72 -198 0
74 -198 0
75 -198 0
-197 -21 -25 -72 -74 -75 198 0
197 -199 0
21 -199 0
25 -199 0
72 -199 0
74 -199 0
-75 -199 0
78 -199 0
-197 -21 -25 -72 -74 75 -78 199 0
-198 200 0
-199 200 0
198 199 -200 0
-82 201 0
-83 201 0
82 83 -201 0
200 -202 0
201 -202 0
-200 -201 202 0
-179 203 0
-202 203 0
179 202 -203 0
5 -204 0
203 -204 0
-5 -203 204 0
-5 -205 0
178 -205 0
5 -178 205 0
-204 206 0
-205 206 0
204 205 -206 0
206 -207 0
-88 -207 0
-206 88 207 0
206 -208 0
88 -208 0
-206 -88 208 0
-207 209 0
-208 209 0
207 208 -209 0
4 -210 0
209 -210 0
-4 -209 210 0
-4 -211 0
206 -211 0
4 -206 211 0
-210 212 0
-211 212 0
210 211 -212 0
212 -213 0
-93 -213 0
-212 93 213 0
212 -214 0
93 -214 0
-212 -93 214 0
-213 215 0
-214 215 0
213 214 -215 0
3 -216 0
215 -216 0
-3 -215 216 0
-3 -217 0
212 -217 0
3 -212 217 0
-216 218 0
-217 218 0
216 217 -218 0
218 -219 0
-98 -219 0
-218 98 219 0
218 -220 0
98 -220 0
-218 -98 220 0
-219 221 0
-220 221 0
219 220 -221 0
2 -222 0
221 -222 0
-2 -221 222 0
218 -223 0
-102 -223 0
-218 102 223 0
218 -224 0
102 -224 0
-218 -102 224 0
-223 225 0
-224 225 0
223 224 -225 0
101 -226 0
225 -226 0
-101 -225 226 0
-101 -227 0
218 -227 0
101 -218 227 0
-226 228 0
-227 228 0
226 227 -228 0
-2 -229 0
228 -229 0
2 -228 229 0
-222 230 0
-229 230 0
222 229 -230 0
230 -231 0
-109 -231 0
-230 109 231 0
230 -232 0
109 -232 0
110 -232 0
-230 -109 -110 232 0
230 -233 0
109 -233 0
-110 -233 0
-230 -109 110 233 0
-232 234 0
-233 234 0
232 233 -234 0
234 -235 0
113 -235 0
114 -235 0
-234 -113 -114 235 0
234 -236 0
113 -236 0
-114 -236 0
-234 -113 114 236 0
-235 237 0
-236 237 0
235 236 -237 0
237 -238 0
125 -238 0
126 -238 0
-237 -125 -126 238 0
237 -239 0
125 -239 0
-126 -239 0
-237 -125 126 239 0
-238 240 0
-239 240 0
238 239 -240 0
-131 241 0
-133 241 0
-135 241 0
-137 241 0
131 133 135 137 -241 0
240 -242 0
241 -242 0
-240 -241 242 0
240 -243 0
129 -243 0
-130 -243 0
-132 -243 0
-134 -243 0
-136 -243 0
-138 -243 0
149 -243 0
-240 -129 130 132 134 136 138 -149 243 0
240 -244 0
129 -244 0
-130 -244 0
-132 -244 0
-134 -244 0
-136 -244 0
-138 -244 0
-149 -244 0
-240 -129 130 132 134 136 138 149 244 0
-243 245 0
-244 245 0
243 244 -245 0
245 -246 0
152 -246 0
153 -246 0
-245 -152 -153 246 0
245 -247 0
152 -247 0
-153 -247 0
-245 -152 153 247 0
-246 248 0
-247 248 0
246 247 -248 0
248 -249 0
156 -249 0
157 -249 0
-248 -156 -157 249 0
248 -250 0
156 -250 0
-157 -250 0
-248 -156 157 250 0
240 -251 0
129 -251 0
-130 -251 0
-132 -251 0
-134 -251 0
-136 -251 0
138 -251 0
139 -251 0
-240 -129 130 132 134 136 -138 -139 251 0
240 -252 0
129 -252 0
-130 -252 0
-132 -252 0
-134 -252 0
-136 -252 0
138 -252 0
-139 -252 0
-240 -129 130 132 134 136 -138 139 252 0
-251 253 0
-252 253 0
251 252 -253 0
253 -254 0
142 -254 0
143 -254 0
-253 -142 -143 254 0
253 -255 0
142 -255 0
-143 -255 0
-253 -142 143 255 0
-254 256 0
-255 256 0
254 255 -256 0
256 -257 0
146 -257 0
147 -257 0
-256 -146 -147 257 0
256 -258 0
146 -258 0
-147 -258 0
-256 -146 147 258 0
-249 259 0
-250 259 0
-257 259 0
-258 259 0
249 250 257 258 -259 0
-165 260 0
-166 260 0
165 166 -260 0
-163 261 0
-260 261 0
163 260 -261 0
259 -262 0
261 -262 0
-259 -261 262 0
-231 263 0
-242 263 0
-262 263 0
231 242 262 -263 0
263 -264 0
170 -264 0
172 -264 0
-263 -170 -172 264 0
263 -265 0
-170 -265 0
-263 170 265 0
-264 266 0
-265 266 0
264 265 -266 0
-12 267 0
12 267 0
6 -268 0
267 -268 0
-6 -267 268 0
-268 269 0
6 269 0
268 -6 -269 0
269 -270 0
-21 -270 0
-269 21 270 0
269 -271 0
27 -271 0
28 -271 0
-269 -27 -28 271 0
269 -272 0
27 -272 0
-28 -272 0
30 -272 0
63 -272 0
-65 -272 0
-269 -27 28 -30 -63 65 272 0
269 -273 0
27 -273 0
-28 -273 0
30 -273 0
63 -273 0
65 -273 0
-269 -27 28 -30 -63 -65 273 0
269 -274 0
27 -274 0
-28 -274 0
30 -274 0
-63 -274 0
-269 -27 28 -30 63 274 0
269 -275 0
31 -275 0
-269 -31 275 0
269 -276 0
-31 -276 0
-269 31 276 0
-275 277 0
-276 277 0
275 276 -277 0
-34 278 0
-36 278 0
-39 278 0
-41 278 0
-43 278 0
-45 278 0
-47 278 0
-49 278 0
34 36 39 41 43 45 47 49 -278 0
277 -279 0
278 -279 0
-277 -278 279 0
277 -280 0
32 -280 0
33 -280 0
-35 -280 0
37 -280 0
-38 -280 0
40 -280 0
-46 -280 0
-48 -280 0
59 -280 0
-277 -32 -33 35 -37 38 -40 46 48 -59 280 0
277 -281 0
190 -281 0
-277 -190 281 0
-279 282 0
-280 282 0
-281 282 0
279 280 281 -282 0
282 -283 0
27 -283 0
-28 -283 0
-30 -283 0
61 -283 0
-282 -27 28 30 -61 283 0
-272 284 0
-273 284 0
-274 284 0
-283 284 0
272 273 274 283 -284 0
284 -285 0
68 -285 0
69 -285 0
-284 -68 -69 285 0
284 -286 0
68 -286 0
-69 -286 0
-284 -68 69 286 0
-271 287 0
-285 287 0
-286 287 0
271 285 286 -287 0
287 -288 0
21 -288 0
25 -288 0
72 -288 0
74 -288 0
75 -288 0
-287 -21 -25 -72 -74 -75 288 0
287 -289 0
21 -289 0
25 -289 0
72 -289 0
74 -289 0
-75 -289 0
78 -289 0
-287 -21 -25 -72 -74 75 -78 289 0
-288 290 0
-289 290 0
288 289 -290 0
290 -291 0
201 -291 0
-290 -201 291 0
-270 292 0
-291 292 0
270 291 -292 0
5 -293 0
292 -293 0
-5 -292 293 0
-5 -294 0
269 -294 0
5 -269 294 0
-293 295 0
-294 295 0
293 294 -295 0
295 -296 0
-88 -296 0
-295 88 296 0
295 -297 0
88 -297 0
-295 -88 297 0
-296 298 0
-297 298 0
296 297 -298 0
4 -299 0
298 -299 0
-4 -298 299 0
-4 -300 0
295 -300 0
4 -295 300 0
-299 301 0
-300 301 0
299 300 -301 0
301 -302 0
-93 -302 0
-301 93 302 0
301 -303 0
93 -303 0
-301 -93 303 0
-302 304 0
-303 304 0
302 303 -304 0
3 -305 0
304 -305 0
-3 -304 305 0
-3 -306 0
301 -306 0
3 -301 306 0
-305 307 0
-306 307 0
305 306 -307 0
307 -308 0
-98 -308 0
-307 98 308 0
307 -309 0
98 -309 0
-307 -98 309 0
-308 310 0
-309 310 0
308 309 -310 0
2 -311 0
310 -311 0
-2 -310 311 0
307 -312 0
-102 -312 0
-307 102 312 0
307 -313 0
102 -313 0
-307 -102 313 0
-312 314 0
-313 314 0
312 313 -314 0
101 -315 0
314 -315 0
-101 -314 315 0
-101 -316 0
307 -316 0
101 -307 316 0
-315 317 0
-316 317 0
315 316 -317 0
-2 -318 0
317 -318 0
2 -317 318 0
-311 319 0
-318 319 0
311 318 -319 0
319 -320 0
-109 -320 0
-319 109 320 0
319 -321 0
109 -321 0
110 -321 0
-319 -109 -110 321 0
319 -322 0
109 -322 0
-110 -322 0
-319 -109 110 322 0
-321 323 0
-322 323 0
321 322 -323 0
323 -324 0
113 -324 0
114 -324 0
-323 -113 -114 324 0
323 -325 0
113 -325 0
-114 -325 0
-323 -113 114 325 0
-324 326 0
-325 326 0
324 325 -326 0
326 -327 0
125 -327 0
126 -327 0
-326 -125 -126 327 0
326 -328 0
125 -328 0
-126 -328 0
-326 -125 126 328 0
-327 329 0
-328 329 0
327 328 -329 0
-131 330 0
-133 330 0
-135 330 0
-137 330 0
131 133 135 137 -330 0
329 -331 0
330 -331 0
-329 -330 331 0
329 -332 0
129 -332 0
-130 -332 0
-132 -332 0
-134 -332 0
-136 -332 0
-138 -332 0
149 -332 0
-329 -129 130 132 134 136 138 -149 332 0
329 -333 0
129 -333 0
-130 -333 0
-132 -333 0
-134 -333 0
-136 -333 0
-138 -333 0
-149 -333 0
-329 -129 130 132 134 136 138 149 333 0
-332 334 0
-333 334 0
332 333 -334 0
334 -335 0
152 -335 0
153 -335 0
-334 -152 -153 335 0
334 -336 0
152 -336 0
-153 -336 0
-334 -152 153 336 0
-335 337 0
-336 337 0
335 336 -337 0
337 -338 0
156 -338 0
157 -338 0
-337 -156 -157 338 0
337 -339 0
156 -339 0
-157 -339 0
-337 -156 157 339 0
329 -340 0
129 -340 0
-130 -340 0
-132 -340 0
-134 -340 0
-136 -340 0
138 -340 0
139 -340 0
-329 -129 130 132 134 136 -138 -139 340 0
329 -341 0
129 -341 0
-130 -341 0
-132 -341 0
-134 -341 0
-136 -341 0
138 -341 0
-139 -341 0
-329 -129 130 132 134 136 -138 139 341 0
-340 342 0
-341 342 0
340 341 -342 0
342 -343 0
142 -343 0
143 -343 0
-342 -142 -143 343 0
342 -344 0
142 -344 0
-143 -344 0
-342 -142 143 344 0
-343 345 0
-344 345 0
343 344 -345 0
345 -346 0
146 -346 0
147 -346 0
-345 -146 -147 346 0
345 -347 0
146 -347 0
-147 -347 0
-345 -146 147 347 0
-338 348 0
-339 348 0
-346 348 0
-347 348 0
338 339 346 347 -348 0
-163 349 0
-260 349 0
163 260 -349 0
348 -350 0
349 -350 0
-348 -349 350 0
-320 351 0
-331 351 0
-350 351 0
320 331 350 -351 0
351 -352 0
170 -352 0
172 -352 0
-351 -170 -172 352 0
351 -353 0
-170 -353 0
-351 170 353 0
-352 354 0
-353 354 0
352 353 -354 0
360 -362 0
361 -362 0
-360 -361 362 0
360 -363 0
-361 -363 0
-360 361 363 0
360 364 0
-362 364 0
-363 364 0
-360 362 363 -364 0
-365 366 0
365 366 0
359 -367 0
364 -367 0
366 -367 0
-359 -364 -366 367 0
-359 -368 0
364 -368 0
359 -364 368 0
-367 369 0
-368 369 0
367 368 -369 0
-370 371 0
370 371 0
-372 373 0
372 373 0
375 -377 0
-376 -377 0
-375 376 377 0
375 378 0
-377 378 0
-375 377 -378 0
-379 380 0
379 380 0
380 -382 0
381 -382 0
-380 -381 382 0
-384 385 0
384 385 0
385 -387 0
-386 -387 0
-385 386 387 0
385 -389 0
386 -389 0
388 -389 0
-385 -386 -388 389 0
385 -392 0
386 -392 0
-388 -392 0
390 -392 0
391 -392 0
-385 -386 388 -390 -391 392 0
385 -394 0
386 -394 0
-388 -394 0
390 -394 0
-391 -394 0
-393 -394 0
-385 -386 388 -390 391 393 394 0
385 -396 0
386 -396 0
-388 -396 0
-390 -396 0
-395 -396 0
-385 -386 388 390 395 396 0
385 -398 0
386 -398 0
-388 -398 0
-390 -398 0
395 -398 0
397 -398 0
-385 -386 388 390 -395 -397 398 0
385 -400 0
386 -400 0
-388 -400 0
390 -400 0
-391 -400 0
393 -400 0
399 -400 0
-385 -386 388 -390 391 -393 -399 400 0
385 -402 0
386 -402 0
-388 -402 0
390 -402 0
-391 -402 0
393 -402 0
-399 -402 0
401 -402 0
-385 -386 388 -390 391 -393 399 -401 402 0
-403 404 0
403 404 0
385 -406 0
386 -406 0
-388 -406 0
-390 -406 0
395 -406 0
-397 -406 0
404 -406 0
405 -406 0
-385 -386 388 390 -395 397 -404 -405 406 0
385 -407 0
386 -407 0
-388 -407 0
-390 -407 0
395 -407 0
-397 -407 0
404 -407 0
-405 -407 0
-385 -386 388 390 -395 397 -404 405 407 0
408 -410 0
409 -410 0
-408 -409 410 0
408 -411 0
-409 -411 0
-408 409 411 0
408 412 0
-410 412 0
-411 412 0
-408 410 411 -412 0
385 -413 0
386 -413 0
-388 -413 0
390 -413 0
-391 -413 0
393 -413 0
-399 -413 0
-401 -413 0
412 -413 0
-385 -386 388 -390 391 -393 399 401 -412 413 0
-387 414 0
-389 414 0
-392 414 0
-394 414 0
-396 414 0
-398 414 0
-400 414 0
-402 414 0
-406 414 0
-407 414 0
-413 414 0
387 389 392 394 396 398 400 402 406 407 413 -414 0
380 -415 0
-381 -415 0
-383 -415 0
414 -415 0
-380 381 383 -414 415 0
380 -417 0
-381 -417 0
383 -417 0
-416 -417 0
-380 381 -383 416 417 0
380 -419 0
-381 -419 0
383 -419 0
416 -419 0
-418 -419 0
-380 381 -383 -416 418 419 0
380 -420 0
-381 -420 0
383 -420 0
416 -420 0
418 -420 0
-380 381 -383 -416 -418 420 0
-415 421 0
-417 421 0
-419 421 0
-420 421 0
415 417 419 420 -421 0
421 -423 0
422 -423 0
-421 -422 423 0
421 -424 0
-422 -424 0
-421 422 424 0
-382 425 0
-423 425 0
-424 425 0
382 423 424 -425 0
-426 427 0
426 427 0
374 -429 0
378 -429 0
425 -429 0
427 -429 0
428 -429 0
-374 -378 -425 -427 -428 429 0
-430 431 0
430 431 0
374 -432 0
378 -432 0
425 -432 0
427 -432 0
-428 -432 0
431 -432 0
-374 -378 -425 -427 428 -431 432 0
-429 433 0
-432 433 0
429 432 -433 0
433 -435 0
434 -435 0
-433 -434 435 0
433 -436 0
-434 -436 0
-433 434 436 0
374 437 0
-435 437 0
-436 437 0
-374 435 436 -437 0
358 -438 0
369 -438 0
371 -438 0
373 -438 0
437 -438 0
-358 -369 -371 -373 -437 438 0
-358 -439 0
369 -439 0
371 -439 0
373 -439 0
358 -369 -371 -373 439 0
-438 440 0
-439 440 0
438 439 -440 0
441 442 0
-441 442 0
357 -443 0
440 -443 0
442 -443 0
-357 -440 -442 443 0
-357 -444 0
440 -444 0
357 -440 444 0
-443 445 0
-444 445 0
443 444 -445 0
446 447 0
-446 447 0
356 -448 0
445 -448 0
447 -448 0
-356 -445 -447 448 0
-356 -449 0
445 -449 0
356 -445 449 0
-448 450 0
-449 450 0
448 449 -450 0
451 452 0
-451 452 0
355 -453 0
450 -453 0
452 -453 0
-355 -450 -452 453 0
455 456 0
-455 456 0
454 -457 0
450 -457 0
456 -457 0
-454 -450 -456 457 0
-454 -458 0
450 -458 0
454 -450 458 0
-457 459 0
-458 459 0
457 458 -459 0
-355 -460 0
459 -460 0
355 -459 460 0
-453 461 0
-460 461 0
453 460 -461 0
462 -464 0
463 -464 0
-462 -463 464 0
462 -465 0
-463 -465 0
-462 463 465 0
-464 466 0
-465 466 0
464 465 -466 0
466 -468 0
467 -468 0
-466 -467 468 0
466 -469 0
-467 -469 0
-466 467 469 0
-468 470 0
-469 470 0
468 469 -470 0
470 -473 0
-471 -473 0
472 -473 0
-470 471 -472 473 0
470 -474 0
-471 -474 0
-472 -474 0
-470 471 472 474 0
470 -476 0
471 -476 0
475 -476 0
-470 -471 -475 476 0
470 -477 0
471 -477 0
-475 -477 0
-470 -471 475 477 0
-473 478 0
-474 478 0
-476 478 0
-477 478 0
473 474 476 477 -478 0
478 -480 0
479 -480 0
-478 -479 480 0
478 -481 0
-479 -481 0
-478 479 481 0
-480 482 0
-481 482 0
480 481 -482 0
482 -484 0
483 -484 0
-482 -483 484 0
482 -486 0
-483 -486 0
485 -486 0
-482 483 -485 486 0
482 -488 0
-483 -488 0
-485 -488 0
487 -488 0
-482 483 485 -487 488 0
482 -490 0
-483 -490 0
-485 -490 0
-487 -490 0
489 -490 0
-482 483 485 487 -489 490 0
482 -493 0
-483 -493 0
-485 -493 0
-487 -493 0
-489 -493 0
491 -493 0
492 -493 0
-482 483 485 487 489 -491 -492 493 0
482 -494 0
-483 -494 0
-485 -494 0
-487 -494 0
-489 -494 0
491 -494 0
-492 -494 0
-482 483 485 487 489 -491 492 494 0
-493 495 0
-494 495 0
493 494 -495 0
495 -497 0
496 -497 0
-495 -496 497 0
495 -498 0
-496 -498 0
-495 496 498 0
-497 499 0
-498 499 0
497 498 -499 0
499 -501 0
500 -501 0
-499 -500 501 0
482 -503 0
-483 -503 0
-485 -503 0
-487 -503 0
-489 -503 0
-491 -503 0
502 -503 0
-482 483 485 487 489 491 -502 503 0
482 -504 0
-483 -504 0
-485 -504 0
-487 -504 0
-489 -504 0
-491 -504 0
-502 -504 0
-482 483 485 487 489 491 502 504 0
-503 505 0
-504 505 0
503 504 -505 0
505 -507 0
506 -507 0
-505 -506 507 0
505 -508 0
-506 -508 0
-505 506 508 0
-507 509 0
-508 509 0
507 508 -509 0
509 -511 0
510 -511 0
-509 -510 511 0
499 -512 0
-500 -512 0
-499 500 512 0
509 -513 0
-510 -513 0
-509 510 513 0
-501 514 0
-511 514 0
-512 514 0
-513 514 0
501 511 512 513 -514 0
514 -516 0
-515 -516 0
-514 515 516 0
514 -518 0
515 -518 0
517 -518 0
-514 -515 -517 518 0
514 -519 0
515 -519 0
-517 -519 0
-514 -515 517 519 0
462 520 0
-484 520 0
-486 520 0
-488 520 0
-490 520 0
-516 520 0
-518 520 0
-519 520 0
-462 484 486 488 490 516 518 519 -520 0
-521 522 0
521 522 0
-524 525 0
524 525 0
523 -526 0
525 -526 0
-523 -525 526 0
523 527 0
-526 527 0
-523 526 -527 0
461 -528 0
520 -528 0
522 -528 0
527 -528 0
-461 -520 -522 -527 528 0
-365 529 0
365 529 0
359 -530 0
529 -530 0
-359 -529 530 0
-530 531 0
359 531 0
530 -359 -531 0
531 -532 0
-374 -532 0
-531 374 532 0
531 -533 0
380 -533 0
381 -533 0
-531 -380 -381 533 0
531 -534 0
380 -534 0
-381 -534 0
383 -534 0
416 -534 0
-418 -534 0
-531 -380 381 -383 -416 418 534 0
531 -535 0
380 -535 0
-381 -535 0
383 -535 0
416 -535 0
418 -535 0
-531 -380 381 -383 -416 -418 535 0
531 -536 0
380 -536 0
-381 -536 0
383 -536 0
-416 -536 0
-531 -380 381 -383 416 536 0
531 -537 0
384 -537 0
-531 -384 537 0
531 -538 0
-384 -538 0
-531 384 538 0
-537 539 0
-538 539 0
537 538 -539 0
-387 540 0
-389 540 0
-392 540 0
-394 540 0
-396 540 0
-398 540 0
-400 540 0
-402 540 0
387 389 392 394 396 398 400 402 -540 0
539 -541 0
540 -541 0
-539 -540 541 0
539 -542 0
385 -542 0
386 -542 0
-388 -542 0
390 -542 0
-391 -542 0
393 -542 0
-399 -542 0
-401 -542 0
412 -542 0
-539 -385 -386 388 -390 391 -393 399 401 -412 542 0
-406 543 0
-407 543 0
406 407 -543 0
539 -544 0
543 -544 0
-539 -543 544 0
-541 545 0
-542 545 0
-544 545 0
541 542 544 -545 0
545 -546 0
380 -546 0
-381 -546 0
-383 -546 0
414 -546 0
-545 -380 381 383 -414 546 0
-534 547 0
-535 547 0
-536 547 0
-546 547 0
534 535 536 546 -547 0
547 -548 0
421 -548 0
422 -548 0
-547 -421 -422 548 0
547 -549 0
421 -549 0
-422 -549 0
-547 -421 422 549 0
-533 550 0
-548 550 0
-549 550 0
533 548 549 -550 0
550 -551 0
374 -551 0
378 -551 0
425 -551 0
427 -551 0
428 -551 0
-550 -374 -378 -425 -427 -428 551 0
550 -552 0
374 -552 0
378 -552 0
425 -552 0
427 -552 0
-428 -552 0
431 -552 0
-550 -374 -378 -425 -427 428 -431 552 0
-551 553 0
-552 553 0
551 552 -553 0
-435 554 0
-436 554 0
435 436 -554 0
553 -555 0
554 -555 0
-553 -554 555 0
-532 556 0
-555 556 0
532 555 -556 0
358 -557 0
556 -557 0
-358 -556 557 0
-358 -558 0
531 -558 0
358 -531 558 0
-557 559 0
-558 559 0
557 558 -559 0
559 -560 0
-441 -560 0
-559 441 560 0
559 -561 0
441 -561 0
-559 -441 561 0
-560 562 0
-561 562 0
560 561 -562 0
357 -563 0
562 -563 0
-357 -562 563 0
-357 -564 0
559 -564 0
357 -559 564 0
-563 565 0
-564 565 0
563 564 -565 0
565 -566 0
-446 -566 0
-565 446 566 0
565 -567 0
446 -567 0
-565 -446 567 0
-566 568 0
-567 568 0
566 567 -568 0
356 -569 0
568 -569 0
-356 -568 569 0
-356 -570 0
565 -570 0
356 -565 570 0
-569 571 0
-570 571 0
569 570 -571 0
571 -572 0
-451 -572 0
-571 451 572 0
571 -573 0
451 -573 0
-571 -451 573 0
-572 574 0
-573 574 0
572 573 -574 0
355 -575 0
574 -575 0
-355 -574 575 0
571 -576 0
-455 -576 0
-571 455 576 0
571 -577 0
455 -577 0
-571 -455 577 0
-576 578 0
-577 578 0
576 577 -578 0
454 -579 0
578 -579 0
-454 -578 579 0
-454 -580 0
571 -580 0
454 -571 580 0
-579 581 0
-580 581 0
579 580 -581 0
-355 -582 0
581 -582 0
355 -581 582 0
-575 583 0
-582 583 0
575 582 -583 0
583 -584 0
-462 -584 0
-583 462 584 0
583 -585 0
462 -585 0
463 -585 0
-583 -462 -463 585 0
583 -586 0
462 -586 0
-463 -586 0
-583 -462 463 586 0
-585 587 0
-586 587 0
585 586 -587 0
587 -588 0
466 -588 0
467 -588 0
-587 -466 -467 588 0
587 -589 0
466 -589 0
-467 -589 0
-587 -466 467 589 0
-588 590 0
-589 590 0
588 589 -590 0
590 -591 0
478 -591 0
479 -591 0
-590 -478 -479 591 0
590 -592 0
478 -592 0
-479 -592 0
-590 -478 479 592 0
-591 593 0
-592 593 0
591 592 -593 0
-484 594 0
-486 594 0
-488 594 0
-490 594 0
484 486 488 490 -594 0
593 -595 0
594 -595 0
-593 -594 595 0
593 -596 0
482 -596 0
-483 -596 0
-485 -596 0
-487 -596 0
-489 -596 0
-491 -596 0
502 -596 0
-593 -482 483 485 487 489 491 -502 596 0
593 -597 0
482 -597 0
-483 -597 0
-485 -597 0
-487 -597 0
-489 -597 0
-491 -597 0
-502 -597 0
-593 -482 483 485 487 489 491 502 597 0
-596 598 0
-597 598 0
596 597 -598 0
598 -599 0
505 -599 0
506 -599 0
-598 -505 -506 599 0
598 -600 0
505 -600 0
-506 -600 0
-598 -505 506 600 0
-599 601 0
-600 601 0
599 600 -601 0
601 -602 0
509 -602 0
510 -602 0
-601 -509 -510 602 0
601 -603 0
509 -603 0
-510 -603 0
-601 -509 510 603 0
593 -604 0
482 -604 0
-483 -604 0
-485 -604 0
-487 -604 0
-489 -604 0
491 -604 0
492 -604 0
-593 -482 483 485 487 489 -491 -492 604 0
593 -605 0
482 -605 0
-483 -605 0
-485 -605 0
-487 -605 0
-489 -605 0
491 -605 0
-492 -605 0
-593 -482 483 485 487 489 -491 492 605 0
-604 606 0
-605 606 0
604 605 -606 0
606 -607 0
495 -607 0
496 -607 0
-606 -495 -496 607 0
606 -608 0
495 -608 0
-496 -608 0
-606 -495 496 608 0
-607 609 0
-608 609 0
607 608 -609 0
609 -610 0
499 -610 0
500 -610 0
-609 -499 -500 610 0
609 -611 0
499 -611 0
-500 -611 0
-609 -499 500 611 0
-602 612 0
-603 612 0
-610 612 0
-611 612 0
602 603 610 611 -612 0
-518 613 0
-519 613 0
518 519 -613 0
-516 614 0
-613 614 0
516 613 -614 0
612 -615 0
614 -615 0
-612 -614 615 0
-584 616 0
-595 616 0
-615 616 0
584 595 615 -616 0
616 -617 0
523 -617 0
525 -617 0
-616 -523 -525 617 0
616 -618 0
-523 -618 0
-616 523 618 0
-617 619 0
-618 619 0
617 618 -619 0
-365 620 0
365 620 0
359 -621 0
620 -621 0
-359 -620 621 0
-621 622 0
359 622 0
621 -359 -622 0
622 -623 0
-374 -623 0
-622 374 623 0
622 -624 0
380 -624 0
381 -624 0
-622 -380 -381 624 0
622 -625 0
380 -625 0
-381 -625 0
383 -625 0
416 -625 0
-418 -625 0
-622 -380 381 -383 -416 418 625 0
622 -626 0
380 -626 0
-381 -626 0
383 -626 0
416 -626 0
418 -626 0
-622 -380 381 -383 -416 -418 626 0
622 -627 0
380 -627 0
-381 -627 0
383 -627 0
-416 -627 0
-622 -380 381 -383 416 627 0
622 -628 0
384 -628 0
-622 -384 628 0
622 -629 0
-384 -629 0
-622 384 629 0
-628 630 0
-629 630 0
628 629 -630 0
-387 631 0
-389 631 0
-392 631 0
-394 631 0
-396 631 0
-398 631 0
-400 631 0
-402 631 0
387 389 392 394 396 398 400 402 -631 0
630 -632 0
631 -632 0
-630 -631 632 0
630 -633 0
385 -633 0
386 -633 0
-388 -633 0
390 -633 0
-391 -633 0
393 -633 0
-399 -633 0
-401 -633 0
412 -633 0
-630 -385 -386 388 -390 391 -393 399 401 -412 633 0
630 -634 0
543 -634 0
-630 -543 634 0
-632 635 0
-633 635 0
-634 635 0
632 633 634 -635 0
635 -636 0
380 -636 0
-381 -636 0
-383 -636 0
414 -636 0
-635 -380 381 383 -414 636 0
-625 637 0
-626 637 0
-627 637 0
-636 637 0
625 626 627 636 -637 0
637 -638 0
421 -638 0
422 -638 0
-637 -421 -422 638 0
637 -639 0
421 -639 0
-422 -639 0
-637 -421 422 639 0
-624 640 0
-638 640 0
-639 640 0
624 638 639 -640 0
640 -641 0
374 -641 0
378 -641 0
425 -641 0
427 -641 0
428 -641 0
-640 -374 -378 -425 -427 -428 641 0
640 -642 0
374 -642 0
378 -642 0
425 -642 0
427 -642 0
-428 -642 0
431 -642 0
-640 -374 -378 -425 -427 428 -431 642 0
-641 643 0
-642 643 0
641 642 -643 0
643 -644 0
554 -644 0
-643 -554 644 0
-623 645 0
-644 645 0
623 644 -645 0
358 -646 0
645 -646 0
-358 -645 646 0
-358 -647 0
622 -647 0
358 -622 647 0
-646 648 0
-647 648 0
646 647 -648 0
648 -649 0
-441 -649 0
-648 441 649 0
648 -650 0
441 -650 0
-648 -441 650 0
-649 651 0
-650 651 0
649 650 -651 0
357 -652 0
651 -652 0
-357 -651 652 0
-357 -653 0
648 -653 0
357 -648 653 0
-652 654 0
-653 654 0
652 653 -654 0
654 -655 0
-446 -655 0
-654 446 655 0
654 -656 0
446 -656 0
-654 -446 656 0
-655 657 0
-656 657 0
655 656 -657 0
356 -658 0
657 -658 0
-356 -657 658 0
-356 -659 0
654 -659 0
356 -654 659 0
-658 660 0
-659 660 0
658 659 -660 0
660 -661 0
-451 -661 0
-660 451 661 0
660 -662 0
451 -662 0
-660 -451 662 0
-661 663 0
-662 663 0
661 662 -663 0
355 -664 0
663 -664 0
-355 -663 664 0
660 -665 0
-455 -665 0
-660 455 665 0
660 -666 0
455 -666 0
-660 -455 666 0
-665 667 0
-666 667 0
665 666 -667 0
454 -668 0
667 -668 0
-454 -667 668 0
-454 -669 0
660 -669 0
454 -660 669 0
-668 670 0
-669 670 0
668 669 -670 0
-355 -671 0
670 -671 0
355 -670 671 0
-664 672 0
-671 672 0
664 671 -672 0
672 -673 0
-462 -673 0
-672 462 673 0
672 -674 0
462 -674 0
463 -674 0
-672 -462 -463 674 0
672 -675 0
462 -675 0
-463 -675 0
-672 -462 463 675 0
-674 676 0
-675 676 0
674 675 -676 0
676 -677 0
466 -677 0
467 -677 0
-676 -466 -467 677 0
676 -678 0
466 -678 0
-467 -678 0
-676 -466 467 678 0
-677 679 0
-678 679 0
677 678 -679 0
679 -680 0
478 -680 0
479 -680 0
-679 -478 -479 680 0
679 -681 0
478 -681 0
-479 -681 0
-679 -478 479 681 0
-680 682 0
-681 682 0
680 681 -682 0
-484 683 0
-486 683 0
-488 683 0
-490 683 0
484 486 488 490 -683 0
682 -684 0
683 -684 0
-682 -683 684 0
682 -685 0
482 -685 0
-483 -685 0
-485 -685 0
-487 -685 0
-489 -685 0
-491 -685 0
502 -685 0
-682 -482 483 485 487 489 491 -502 685 0
682 -686 0
482 -686 0
-483 -686 0
-485 -686 0
-487 -686 0
-489 -686 0
-491 -686 0
-502 -686 0
-682 -482 483 485 487 489 491 502 686 0
-685 687 0
-686 687 0
685 686 -687 0
687 -688 0
505 -688 0
506 -688 0
-687 -505 -506 688 0
687 -689 0
505 -689 0
-506 -689 0
-687 -505 506 689 0
-688 690 0
-689 690 0
688 689 -690 0
690 -691 0
509 -691 0
510 -691 0
-690 -509 -510 691 0
690 -692 0
509 -692 0
-510 -692 0
-690 -509 510 692 0
682 -693 0
482 -693 0
-483 -693 0
-485 -693 0
-487 -693 0
-489 -693 0
491 -693 0
492 -693 0
-682 -482 483 485 487 489 -491 -492 693 0
682 -694 0
482 -694 0
-483 -694 0
-485 -694 0
-487 -694 0
-489 -694 0
491 -694 0
-492 -694 0
-682 -482 483 485 487 489 -491 492 694 0
-693 695 0
-694 695 0
693 694 -695 0
695 -696 0
495 -696 0
496 -696 0
-695 -495 -496 696 0
695 -697 0
495 -697 0
-496 -697 0
-695 -495 496 697 0
-696 698 0
-697 698 0
696 697 -698 0
698 -699 0
499 -699 0
500 -699 0
-698 -499 -500 699 0
698 -700 0
499 -700 0
-500 -700 0
-698 -499 500 700 0
-691 701 0
-692 701 0
-699 701 0
-700 701 0
691 692 699 700 -701 0
-516 702 0
-613 702 0
516 613 -702 0
701 -703 0
702 -703 0
-701 -702 703 0
-673 704 0
-684 704 0
-703 704 0
673 684 703 -704 0
704 -705 0
523 -705 0
525 -705 0
-704 -523 -525 705 0
704 -706 0
-523 -706 0
-704 523 706 0
-705 707 0
-706 707 0
705 706 -707 0
-619 -266 -708 0
619 266 -708 0
-619 266 708 0
619 -266 708 0
-707 -354 -709 0
707 354 -709 0
-707 354 709 0
707 -354 709 0
-708 -710 0
-709 -710 0
528 -710 0
708 709 -528 710 0
-175 710 0
